
===== New CPLEX run =====
Instance: /home/yorig/tuner/mpils-tests/instances/miplib/medium-1/neos-3024952-loue.mps
Config: /scratch/yorig/mpils-results-grid-seconds-10-no-mip-start/medium-1/4proc/seed-1/9_neos-3024952-loue_seed-1_20260503_044429/expansion/config_param_CPXPARAM_MIP_Strategy_StartAlgorithm_5_iter_3.prm
========================

Selected objective sense:  MINIMIZE
Selected objective  name:  R3706
Selected RHS        name:  B
Selected bound      name:  BOUND
Version identifier: 22.1.2.0 | 2024-11-26 | 0edbb82fd
CPXPARAM_Threads                                 8
CPXPARAM_Parallel                                1
CPXPARAM_MIP_Cuts_Cliques                        -1
CPXPARAM_MIP_Strategy_StartAlgorithm             5
CPXPARAM_MIP_Limits_GomoryCand                   50
CPXPARAM_MIP_Cuts_PathCut                        1
CPXPARAM_MIP_Cuts_MIRCut                         2
CPXPARAM_MIP_Cuts_Disjunctive                    1
CPXPARAM_Emphasis_MIP                            4
CPXPARAM_MIP_Strategy_Dive                       1
CPXPARAM_TimeLimit                               10
Tried aggregator 2 times.
MIP Presolve eliminated 40 rows and 0 columns.
MIP Presolve modified 80 coefficients.
Aggregator did 32 substitutions.
Reduced MIP has 3633 rows, 3223 columns, and 15906 nonzeros.
Reduced MIP has 0 binaries, 3223 generals, 0 SOSs, and 0 indicators.
Presolve time = 0.01 sec. (7.72 ticks)
Tried aggregator 1 time.
Detecting symmetries...
Reduced MIP has 3633 rows, 3223 columns, and 15906 nonzeros.
Reduced MIP has 0 binaries, 3223 generals, 0 SOSs, and 0 indicators.
Presolve time = 0.01 sec. (8.53 ticks)
MIP emphasis: hidden feasible solutions.
MIP search method: dynamic search.
Parallel mode: deterministic, using up to 8 threads.
Root relaxation solution time = 0.36 sec. (404.80 ticks)

        Nodes                                         Cuts/
   Node  Left     Objective  IInf  Best Integer    Best Bound    ItCnt     Gap

      0     0    22882.0000   502                  22882.0000       16         
      0     0    23411.2408   772                   Cuts: 431      379         
      0     0    23468.4333   868                   Cuts: 192      498         
      0     0    23532.8000   939                   Cuts: 173      581         
      0     0    23554.0250   978                   Cuts: 136      623         
      0     0    23703.5355  1269                   Cuts: 164      752         
Detecting symmetries...
      0     0    23902.3509  1095                   Cuts: 138      886         
      0     0    23972.1517  1235                   Cuts: 103      941         
      0     0    24053.8029  1215                   Cuts: 118     1040         
      0     0    24176.5751  1198                   Cuts: 110     1192         
      0     0    24293.8601  1062                    Cuts: 76     1263         
      0     0    24359.4985  1171                    Cuts: 71     1395         
      0     0    24377.2160  1137                    Cuts: 93     1529         
      0     0    24390.0476  1120                    Cuts: 61     1606         
      0     0    24390.2221  1152                    Cuts: 58     1686         
      0     0    24393.4444  1170                    Cuts: 47     1758         
Detecting symmetries...
      0     2    24393.4444  1170                  24498.9494     1758         
Elapsed time = 1.83 sec. (2597.50 ticks, tree = 0.02 MB, solutions = 0)
    498   435    24572.8683  1015                  24498.9494     5723         
   1184  1091    24636.8157   931                  24498.9494    11654         
   2117  1927    25572.9127   684                  24498.9494    19578         
   3576  3309    26977.6118   712                  24498.9494    30317         
   5276  5079    29064.1570   381                  24498.9494    42206         
   6995  6318    33582.8000    27                  24498.9494    48356         
*  7095  6577      integral     0    34692.0000    24498.9494    49353   29.38%
*  7145+ 6554                        34037.0000    24498.9494            28.02%
*  7619+ 7300                        32397.0000    24498.9494            24.38%
   7780  7045    24464.8386   963    32397.0000    24498.9494    53728   24.38%
*  7798+ 7190                        31182.0000    24498.9494            21.43%
*  7798+ 7116                        30090.0000    24498.9494            18.58%
   7798  7115    30090.0000     0    30090.0000    24498.9494    51678   18.58%
   8165  5868    24483.0036   987    30090.0000    24498.9494    56799   18.58%
*  8281+ 5773                        29489.0000    24498.9494            16.92%
*  8281+ 5773                        29143.0000    24498.9494            15.94%
*  8281+ 5829                        29059.0000    24498.9494            15.69%
   8284  7063    24486.3386   896    29059.0000    24498.9494    53864   15.69%
Elapsed time = 4.14 sec. (6626.44 ticks, tree = 27.56 MB, solutions = 9)

Performing restart 1

Repeating presolve.
Tried aggregator 1 time.
MIP Presolve modified 16 coefficients.
Reduced MIP has 3633 rows, 3223 columns, and 15892 nonzeros.
Reduced MIP has 0 binaries, 3223 generals, 0 SOSs, and 0 indicators.
Presolve time = 0.00 sec. (6.35 ticks)
Tried aggregator 1 time.
Reduced MIP has 3633 rows, 3223 columns, and 15892 nonzeros.
Reduced MIP has 0 binaries, 3223 generals, 0 SOSs, and 0 indicators.
Presolve time = 0.01 sec. (8.81 ticks)
Represolve time = 0.02 sec. (30.22 ticks)
   8287     0    25048.4716  1097    29059.0000     Cuts: 348    59961   13.80%
*  8287+    0                        28989.0000    25048.4716            13.59%
   8287     0    25257.1756  1079    28989.0000     Cuts: 213    60133   12.87%
   8287     0    25521.8487  1224    28989.0000     Cuts: 164    60308   11.96%
*  8287+    0                        28909.0000    25521.8487            11.72%
*  8287+    0                        28889.0000    25521.8487            11.66%
   8287     0  -1.00000e+75     0    28889.0000    25521.8487    60308   11.66%
   8287     0    25726.4526   957    28889.0000     Cuts: 151    60447   10.95%
   8287     0    25782.0349  1024    28889.0000      Cuts: 94    60511   10.75%
   8287     0    25850.7779  1171    28889.0000      Cuts: 80    60611   10.52%
   8287     0    26044.0380   906    28889.0000     Cuts: 103    60696    9.85%
   8287     0    26116.0391  1103    28889.0000     Cuts: 100    60779    9.60%
   8287     0    26131.1411   930    28889.0000      Cuts: 41    60835    9.55%
   8287     0    26181.4519  1134    28889.0000      Cuts: 42    60885    9.37%
   8287     0    26195.4409  1190    28889.0000      Cuts: 33    60927    9.32%
   8287     0    26209.8984  1078    28889.0000      Cuts: 23    60976    9.27%
   8287     0    26215.1594  1213    28889.0000      Cuts: 35    61015    9.26%
   8287     0    26219.4151  1191    28889.0000      Cuts: 13    61036    9.24%
   8287     0    26220.6914  1156    28889.0000       Cuts: 8    61049    9.24%
   8287     0    26221.0664  1127    28889.0000      Cuts: 10    61055    9.24%
   8287     0    26223.0039  1124    28889.0000   ZeroHalf: 3    61069    9.23%
   8287     0    26233.0622  1076    28889.0000       Cuts: 4    61078    9.19%
   8287     0    26233.0622  1103    28889.0000       Cuts: 5    61081    9.19%
   8287     0    26234.6289   985    28889.0000   ZeroHalf: 2    61087    9.19%
   8287     0    26234.6289  1011    28889.0000   ZeroHalf: 1    61093    9.19%
   8287     0    26234.6289  1003    28889.0000   ZeroHalf: 1    61096    9.19%
   8287     0    26234.6289  1011    28889.0000       Cuts: 5    61098    9.19%
   8287     2    26234.6289  1011    28889.0000    26234.6289    61098    9.19%
   9306   931    28002.2500   406    28889.0000    26239.2892    65420    9.17%
  11680  2698    26782.3624   305    28889.0000    26241.4726    74331    9.16%
* 14905+ 5914                        28759.0000    26245.6884             8.74%
* 15284+ 6082                        28685.0000    26245.6884             8.50%
  15452  6279    26270.4392   914    28685.0000    26245.6884    97208    8.50%
* 16038+ 6540                        28683.0000    26245.6884             8.50%
* 16758+ 7498                        28457.0000    26245.6884             7.77%
* 17000+ 7384                        28297.0000    26245.6884             7.25%
  17822  7448    28236.4048   161    28297.0000    26245.6884   108003    7.25%

Mixed integer rounding cuts applied:  302
Flow path cuts applied:  0
Zero-half cuts applied:  60
Gomory fractional cuts applied:  40
Disjunctive cuts applied:  0
Cone linearizations applied:  0

Root node processing (before b&c):
  Real time             =    1.82 sec. (2594.98 ticks)
Parallel b&c, 8 threads:
  Real time             =    8.18 sec. (11832.80 ticks)
  Sync time (average)   =    0.53 sec.
  Wait time (average)   =    0.00 sec.
                          ------------
Total (root+branch&cut) =   10.00 sec. (14427.79 ticks)
Gap: 7.25%
Upper bound: 28297
Lower bound: 26245.7
End of CPLEX run. Time: 10.0042 seconds

===== New CPLEX run =====
Instance: /home/yorig/tuner/mpils-tests/instances/miplib/medium-1/neos-3024952-loue.mps
Config: /scratch/yorig/mpils-results-grid-seconds-10-no-mip-start/medium-1/4proc/seed-1/9_neos-3024952-loue_seed-1_20260503_044429/expansion/config_param_CPXPARAM_MIP_Strategy_StartAlgorithm_6_iter_3.prm
========================

Selected objective sense:  MINIMIZE
Selected objective  name:  R3706
Selected RHS        name:  B
Selected bound      name:  BOUND
Version identifier: 22.1.2.0 | 2024-11-26 | 0edbb82fd
CPXPARAM_Threads                                 8
CPXPARAM_Parallel                                1
CPXPARAM_MIP_Cuts_Cliques                        -1
CPXPARAM_MIP_Strategy_StartAlgorithm             6
CPXPARAM_MIP_Limits_GomoryCand                   50
CPXPARAM_MIP_Cuts_PathCut                        1
CPXPARAM_MIP_Cuts_MIRCut                         2
CPXPARAM_MIP_Cuts_Disjunctive                    1
CPXPARAM_Emphasis_MIP                            4
CPXPARAM_MIP_Strategy_Dive                       1
CPXPARAM_TimeLimit                               10
Tried aggregator 2 times.
MIP Presolve eliminated 40 rows and 0 columns.
MIP Presolve modified 80 coefficients.
Aggregator did 32 substitutions.
Reduced MIP has 3633 rows, 3223 columns, and 15906 nonzeros.
Reduced MIP has 0 binaries, 3223 generals, 0 SOSs, and 0 indicators.
Presolve time = 0.01 sec. (7.72 ticks)
Tried aggregator 1 time.
Detecting symmetries...
Reduced MIP has 3633 rows, 3223 columns, and 15906 nonzeros.
Reduced MIP has 0 binaries, 3223 generals, 0 SOSs, and 0 indicators.
Presolve time = 0.01 sec. (8.53 ticks)
MIP emphasis: hidden feasible solutions.
MIP search method: dynamic search.
Parallel mode: deterministic, using up to 8 threads.
Root relaxation solution time = 0.14 sec. (166.79 ticks)

        Nodes                                         Cuts/
   Node  Left     Objective  IInf  Best Integer    Best Bound    ItCnt     Gap

      0     0    22882.0000   397                  22882.0000     3901         
      0     0    23571.3985   709                   Cuts: 428     4319         
      0     0    23679.1810   802                   Cuts: 227     4447         
      0     0    23736.3198   849                   Cuts: 145     4524         
      0     0    23759.1957   962                   Cuts: 119     4600         
      0     0    23846.8380  1142                   Cuts: 122     4682         
Detecting symmetries...
      0     0    24090.2888   988                   Cuts: 103     4842         
      0     0    24178.3286  1066                   Cuts: 122     4939         
      0     0    24299.3000  1076                   Cuts: 118     5071         
      0     0    24369.9619  1069                    Cuts: 82     5196         
      0     0    24403.5203  1206                    Cuts: 81     5293         
      0     0    24437.9234  1300                    Cuts: 80     5394         
      0     0    24447.5229  1282                    Cuts: 85     5450         
      0     0    24465.3486  1308                    Cuts: 53     5486         
      0     0    24473.2372  1216                    Cuts: 55     5565         
      0     0    24476.2689  1283                    Cuts: 70     5613         
      0     0    24509.7365  1170                    Cuts: 61     5704         
      0     0    24516.1362  1309                    Cuts: 42     5743         
      0     0    24520.1632  1348                    Cuts: 45     5788         
Detecting symmetries...
      0     2    24520.1632  1348                  24520.1632     5788         
Elapsed time = 1.72 sec. (2468.75 ticks, tree = 0.02 MB, solutions = 0)
    351   298    24736.6000   943                  24520.1632     8523         
    960   771    25066.4807   761                  24520.1632    12832         
   2100  1950    25749.3867   747                  24520.1632    23404         
   3572  3122    28699.5892   270                  24520.1632    32090         
   5453  5145    30084.6714   227                  24520.1632    45139         
*  6499  6078      integral     0    33282.0000    24520.1632    48943   26.33%
*  6844+ 6315                        30686.0000    24520.1632            20.09%
*  6844+ 6691                        29507.0000    24520.1632            16.90%
   6844  6398    32489.0000    24    29507.0000    24520.1632    50455   16.90%
   7154  5019    24790.6786   934    29507.0000    24520.1632    53948   16.90%
   7215  6794    24784.1000   963    29507.0000    24520.1632    52364   16.90%

Performing restart 1

Repeating presolve.
Tried aggregator 1 time.
MIP Presolve modified 16 coefficients.
Reduced MIP has 3633 rows, 3223 columns, and 15892 nonzeros.
Reduced MIP has 0 binaries, 3223 generals, 0 SOSs, and 0 indicators.
Presolve time = 0.00 sec. (6.35 ticks)
Tried aggregator 1 time.
Reduced MIP has 3633 rows, 3223 columns, and 15892 nonzeros.
Reduced MIP has 0 binaries, 3223 generals, 0 SOSs, and 0 indicators.
Presolve time = 0.01 sec. (8.81 ticks)
Represolve time = 0.02 sec. (28.41 ticks)
*  7216+    0                        29487.0000    24550.1249            16.74%
   7216     0    25068.8353  1133    29487.0000     Cuts: 298    55898   14.98%
*  7216+    0                        29197.0000    25068.8353            14.14%
   7216     0    25167.4235  1227    29197.0000     Cuts: 214    56047   13.80%
   7216     0    25326.9724  1025    29197.0000     Cuts: 198    56193   13.25%
   7216     0    25387.2859  1260    29197.0000     Cuts: 162    56302   13.05%
   7216     0    25583.8756  1048    29197.0000     Cuts: 191    56430   12.37%
   7216     0    25658.6662  1168    29197.0000     Cuts: 117    56501   12.12%
*  7216+    0                        29167.0000    25658.6662            12.03%
   7216     0    25806.9681  1215    29167.0000     Cuts: 115    56604   11.52%
   7216     0    25948.8836  1014    29167.0000     Cuts: 140    56675   11.03%
   7216     0    26001.5800  1098    29167.0000      Cuts: 72    56714   10.85%
   7216     0    26082.9102   947    29167.0000      Cuts: 56    56770   10.57%
   7216     0    26114.0526  1053    29167.0000      Cuts: 44    56808   10.47%
   7216     0    26132.1315  1073    29167.0000      Cuts: 33    56843   10.41%
   7216     0    26141.1867  1188    29167.0000      Cuts: 31    56873   10.37%
   7216     0    26148.7867  1101    29167.0000      Cuts: 11    56884   10.35%
   7216     0    26152.8030  1047    29167.0000       Cuts: 4    56892   10.33%
   7216     0    26153.4697  1096    29167.0000       Cuts: 4    56896   10.33%
   7216     0    26157.3824  1025    29167.0000       Cuts: 5    56917   10.32%
   7216     0    26159.7582  1143    29167.0000       Cuts: 4    56924   10.31%
   7216     0    26160.4491   959    29167.0000       Cuts: 3    56935   10.31%
   7216     0    26161.3841  1140    29167.0000       Cuts: 6    56946   10.30%
   7216     0    26161.3841  1174    29167.0000       Cuts: 3    56949   10.30%
   7216     0    26161.3841  1180    29167.0000    MIRcuts: 3    56950   10.30%
   7216     2    26161.3841  1180    29167.0000    26161.3841    56950   10.30%
Elapsed time = 6.33 sec. (9067.10 ticks, tree = 0.02 MB, solutions = 10)
   8604  1282    28367.3214   307    29167.0000    26167.5603    63037   10.28%
  10662  3061    26568.5438   768    29167.0000    26168.4167    74319   10.28%
  14649  6617    27160.8074   387    29167.0000    26170.9167    97816   10.27%
  19351 11190    27628.8829   172    29167.0000    26170.9167   128714   10.27%
* 21485+13317                        29147.0000    26170.9167            10.21%
* 21575+13461                        29127.0000    26170.9167            10.15%
* 22126+13506                        29117.0000    26171.5700            10.12%
* 22461+13520                        29097.0000    26171.5700            10.05%
* 22675+13711                        29051.0000    26171.5700             9.91%
* 22917+14216                        29011.0000    26171.5700             9.79%
  23054 14497    27230.3882   239    29011.0000    26171.5700   158155    9.79%
* 23546+14731                        28901.0000    26171.5700             9.44%
* 24176+14866                        28861.0000    26171.5700             9.32%
* 24216+14885                        28851.0000    26171.5700             9.29%
* 24232+14866                        28851.0000    26171.5700             9.29%

Mixed integer rounding cuts applied:  277
Flow path cuts applied:  0
Zero-half cuts applied:  69
Gomory fractional cuts applied:  46
Disjunctive cuts applied:  0
Cone linearizations applied:  0

Root node processing (before b&c):
  Real time             =    1.72 sec. (2466.63 ticks)
Parallel b&c, 8 threads:
  Real time             =    8.29 sec. (12383.83 ticks)
  Sync time (average)   =    0.56 sec.
  Wait time (average)   =    0.00 sec.
                          ------------
Total (root+branch&cut) =   10.00 sec. (14850.46 ticks)
Gap: 9.29%
Upper bound: 28851
Lower bound: 26171.6
End of CPLEX run. Time: 10.0061 seconds

===== New CPLEX run =====
Instance: /home/yorig/tuner/mpils-tests/instances/miplib/medium-1/neos-3024952-loue.mps
Config: /scratch/yorig/mpils-results-grid-seconds-10-no-mip-start/medium-1/4proc/seed-1/9_neos-3024952-loue_seed-1_20260503_044429/expansion/config_param_CPXPARAM_MIP_Strategy_SubAlgorithm_1_iter_3.prm
========================

Selected objective sense:  MINIMIZE
Selected objective  name:  R3706
Selected RHS        name:  B
Selected bound      name:  BOUND
Version identifier: 22.1.2.0 | 2024-11-26 | 0edbb82fd
CPXPARAM_Threads                                 8
CPXPARAM_Parallel                                1
CPXPARAM_MIP_Cuts_Cliques                        -1
CPXPARAM_MIP_Strategy_SubAlgorithm               1
CPXPARAM_MIP_Limits_GomoryCand                   50
CPXPARAM_MIP_Cuts_PathCut                        1
CPXPARAM_MIP_Cuts_MIRCut                         2
CPXPARAM_MIP_Cuts_Disjunctive                    1
CPXPARAM_Emphasis_MIP                            4
CPXPARAM_MIP_Strategy_Dive                       1
CPXPARAM_TimeLimit                               10
Tried aggregator 2 times.
MIP Presolve eliminated 40 rows and 0 columns.
MIP Presolve modified 80 coefficients.
Aggregator did 32 substitutions.
Reduced MIP has 3633 rows, 3223 columns, and 15906 nonzeros.
Reduced MIP has 0 binaries, 3223 generals, 0 SOSs, and 0 indicators.
Presolve time = 0.01 sec. (7.72 ticks)
Tried aggregator 1 time.
Detecting symmetries...
Reduced MIP has 3633 rows, 3223 columns, and 15906 nonzeros.
Reduced MIP has 0 binaries, 3223 generals, 0 SOSs, and 0 indicators.
Presolve time = 0.01 sec. (8.53 ticks)
MIP emphasis: hidden feasible solutions.
MIP search method: dynamic search.
Parallel mode: deterministic, using up to 8 threads.
Root relaxation solution time = 0.16 sec. (205.53 ticks)

        Nodes                                         Cuts/
   Node  Left     Objective  IInf  Best Integer    Best Bound    ItCnt     Gap

      0     0    22882.0000   497                  22882.0000       23         
      0     0    23453.9000   778                   Cuts: 423      767         
      0     0    23522.5000   884                   Cuts: 200     1398         
      0     0    23614.1143  1070                   Cuts: 201     1812         
      0     0    23680.8838  1019                   Cuts: 137     2328         
      0     0    23849.3756  1231                   Cuts: 156     2818         
Detecting symmetries...
      0     0    23971.8325  1123                    Cuts: 97     3119         
      0     0    24085.2606  1311                   Cuts: 122     3470         
      0     0    24300.4432  1238                   Cuts: 133     3877         
      0     0    24333.5309  1354                    Cuts: 86     4128         
      0     0    24394.1828  1075                    Cuts: 79     4402         
      0     0    24414.7602  1159                    Cuts: 73     4640         
      0     0    24431.1437  1170                    Cuts: 42     4828         
      0     0    24436.3671  1208                    Cuts: 57     5020         
      0     0    24438.1150  1172                    Cuts: 35     5184         
      0     0    24444.8733  1177                    Cuts: 37     5323         
      0     0    24445.6270  1242                    Cuts: 33     5422         
      0     0    24446.7665  1222                    Cuts: 14     5502         
      0     0    24450.2703  1273                    Cuts: 18     5618         
Detecting symmetries...
      0     2    24450.2703  1273                  24450.2703     5618         
Elapsed time = 4.47 sec. (5730.24 ticks, tree = 0.02 MB, solutions = 0)
    135   101    24626.3995  1303                  24450.2703    11445         
    290   249    24604.5238   959                  24450.2703    20073         
    554   494    24802.5204   995                  24450.2703    31743         
    710   660    24766.6761   681                  24450.2703    40539         
    896   806    24677.1047  1008                  24450.2703    48868         
   1256  1117    24736.0692   911                  24450.2703    61924         
   1642  1439    25396.4870   767                  24450.2703    73098         
   2028  1778    25574.5997   948                  24450.2703    85646         
   2451  2221    26288.7856   706                  24450.2703    98384         
   4622  4257    29216.4022   268                  24450.2703   146471         
Elapsed time = 6.69 sec. (8837.65 ticks, tree = 13.55 MB, solutions = 0)
*  6871+ 6520                        33242.0000    24450.2703            26.45%
   7132  6760    24497.3519  1170    33242.0000    24450.2703   182713   26.45%
*  7298+ 6795                        32512.0000    24450.2703            24.80%
   7298  6797    31656.2698   255    32512.0000    24450.2703   183131   24.80%
   7684  7231    24796.3055  1017    32512.0000    24450.3661   205524   24.80%
*  7881+ 7366                        32469.0000    24450.3661            24.70%
*  7881+ 7366                        32383.0000    24450.3661            24.50%
*  8087+ 7457                        32210.0000    24450.3661            24.09%
*  8091+ 7484                        31778.0000    24450.3661            23.06%
   8180  7161    25714.5728   848    31778.0000    24450.3661   221750   23.06%
*  8211+ 7151                        31382.0000    24450.3661            22.09%

Mixed integer rounding cuts applied:  119
Flow path cuts applied:  0
Zero-half cuts applied:  179
Gomory fractional cuts applied:  22
Disjunctive cuts applied:  0
Cone linearizations applied:  0

Root node processing (before b&c):
  Real time             =    4.47 sec. (5727.38 ticks)
Parallel b&c, 8 threads:
  Real time             =    5.53 sec. (8212.16 ticks)
  Sync time (average)   =    0.50 sec.
  Wait time (average)   =    0.00 sec.
                          ------------
Total (root+branch&cut) =   10.00 sec. (13939.55 ticks)
Gap: 22.09%
Upper bound: 31382
Lower bound: 24450.4
End of CPLEX run. Time: 10.0052 seconds

===== New CPLEX run =====
Instance: /home/yorig/tuner/mpils-tests/instances/miplib/medium-1/neos-3024952-loue.mps
Config: /scratch/yorig/mpils-results-grid-seconds-10-no-mip-start/medium-1/4proc/seed-1/9_neos-3024952-loue_seed-1_20260503_044429/expansion/config_param_CPXPARAM_MIP_Strategy_SubAlgorithm_2_iter_3.prm
========================

Selected objective sense:  MINIMIZE
Selected objective  name:  R3706
Selected RHS        name:  B
Selected bound      name:  BOUND
Version identifier: 22.1.2.0 | 2024-11-26 | 0edbb82fd
CPXPARAM_Threads                                 8
CPXPARAM_Parallel                                1
CPXPARAM_MIP_Cuts_Cliques                        -1
CPXPARAM_MIP_Strategy_SubAlgorithm               2
CPXPARAM_MIP_Limits_GomoryCand                   50
CPXPARAM_MIP_Cuts_PathCut                        1
CPXPARAM_MIP_Cuts_MIRCut                         2
CPXPARAM_MIP_Cuts_Disjunctive                    1
CPXPARAM_Emphasis_MIP                            4
CPXPARAM_MIP_Strategy_Dive                       1
CPXPARAM_TimeLimit                               10
Tried aggregator 2 times.
MIP Presolve eliminated 40 rows and 0 columns.
MIP Presolve modified 80 coefficients.
Aggregator did 32 substitutions.
Reduced MIP has 3633 rows, 3223 columns, and 15906 nonzeros.
Reduced MIP has 0 binaries, 3223 generals, 0 SOSs, and 0 indicators.
Presolve time = 0.01 sec. (7.72 ticks)
Tried aggregator 1 time.
Detecting symmetries...
Reduced MIP has 3633 rows, 3223 columns, and 15906 nonzeros.
Reduced MIP has 0 binaries, 3223 generals, 0 SOSs, and 0 indicators.
Presolve time = 0.01 sec. (8.53 ticks)
MIP emphasis: hidden feasible solutions.
MIP search method: dynamic search.
Parallel mode: deterministic, using up to 8 threads.
Root relaxation solution time = 0.13 sec. (166.79 ticks)

        Nodes                                         Cuts/
   Node  Left     Objective  IInf  Best Integer    Best Bound    ItCnt     Gap

      0     0    22882.0000   397                  22882.0000     3901         
      0     0    23571.3985   709                   Cuts: 428     4319         
      0     0    23679.1810   802                   Cuts: 227     4447         
      0     0    23736.3198   849                   Cuts: 145     4524         
      0     0    23759.1957   962                   Cuts: 119     4600         
      0     0    23846.8380  1142                   Cuts: 122     4682         
Detecting symmetries...
      0     0    24090.2888   988                   Cuts: 103     4842         
      0     0    24178.3286  1066                   Cuts: 122     4939         
      0     0    24299.3000  1076                   Cuts: 118     5071         
      0     0    24369.9619  1069                    Cuts: 82     5196         
      0     0    24403.5203  1206                    Cuts: 81     5293         
      0     0    24437.9234  1300                    Cuts: 80     5394         
      0     0    24447.5229  1282                    Cuts: 85     5450         
      0     0    24465.3486  1308                    Cuts: 53     5486         
      0     0    24473.2372  1216                    Cuts: 55     5565         
      0     0    24476.2689  1283                    Cuts: 70     5613         
      0     0    24509.7365  1170                    Cuts: 61     5704         
      0     0    24516.1362  1309                    Cuts: 42     5743         
      0     0    24520.1632  1348                    Cuts: 45     5788         
Detecting symmetries...
      0     2    24520.1632  1348                  24520.1632     5788         
Elapsed time = 1.72 sec. (2468.75 ticks, tree = 0.02 MB, solutions = 0)
    351   298    24736.6000   943                  24520.1632     8523         
    960   771    25066.4807   761                  24520.1632    12832         
   2100  1950    25749.3867   747                  24520.1632    23404         
   3572  3122    28699.5892   270                  24520.1632    32090         
   5453  5145    30084.6714   227                  24520.1632    45139         
*  6499  6078      integral     0    33282.0000    24520.1632    48943   26.33%
*  6844+ 6315                        30686.0000    24520.1632            20.09%
*  6844+ 6691                        29507.0000    24520.1632            16.90%
   6844  6398    32489.0000    24    29507.0000    24520.1632    50455   16.90%
   7154  5019    24790.6786   934    29507.0000    24520.1632    53948   16.90%
   7215  6794    24784.1000   963    29507.0000    24520.1632    52364   16.90%

Performing restart 1

Repeating presolve.
Tried aggregator 1 time.
MIP Presolve modified 16 coefficients.
Reduced MIP has 3633 rows, 3223 columns, and 15892 nonzeros.
Reduced MIP has 0 binaries, 3223 generals, 0 SOSs, and 0 indicators.
Presolve time = 0.00 sec. (6.35 ticks)
Tried aggregator 1 time.
Reduced MIP has 3633 rows, 3223 columns, and 15892 nonzeros.
Reduced MIP has 0 binaries, 3223 generals, 0 SOSs, and 0 indicators.
Presolve time = 0.01 sec. (8.81 ticks)
Represolve time = 0.02 sec. (28.41 ticks)
*  7216+    0                        29467.0000    24550.1249            16.69%
   7216     0    25091.3779  1032    29467.0000     Cuts: 319    61879   14.85%
*  7216+    0                        29457.0000    25091.3779            14.82%
   7216     0    25211.3095  1153    29457.0000     Cuts: 241    62027   14.41%
*  7216+    0                        29177.0000    25211.3095            13.59%
   7216     0    25267.3043  1050    29177.0000     Cuts: 223    62180   13.40%
   7216     0    25431.2458  1110    29177.0000     Cuts: 180    62326   12.84%
   7216     0    25554.5814  1213    29177.0000     Cuts: 148    62444   12.42%
*  7216+    0                        29167.0000    25554.5814            12.39%
   7216     0    25670.0609  1141    29167.0000     Cuts: 132    62560   11.99%
   7216     0    25813.9034  1144    29167.0000     Cuts: 140    62665   11.50%
   7216     0    25889.6184  1051    29167.0000      Cuts: 95    62754   11.24%
   7216     0    25952.2703  1153    29167.0000      Cuts: 90    62818   11.02%
   7216     0    26023.9890  1098    29167.0000      Cuts: 85    62885   10.78%
   7216     0    26044.6425  1146    29167.0000      Cuts: 46    62941   10.71%
   7216     0    26071.0565  1137    29167.0000      Cuts: 38    62977   10.36%
   7216     0    26111.4735  1080    29167.0000      Cuts: 55    63017   10.36%
   7216     0    26153.7826  1189    29167.0000      Cuts: 66    63082   10.23%
   7216     0    26178.8269  1049    29167.0000      Cuts: 31    63125   10.23%
   7216     0    26187.2994  1220    29167.0000      Cuts: 42    63163   10.19%
   7216     0    26191.2122  1090    29167.0000      Cuts: 35    63195   10.19%
   7216     0    26197.7416  1143    29167.0000      Cuts: 16    63214   10.18%
   7216     0    26202.2240  1296    29167.0000      Cuts: 17    63233   10.16%
   7216     0    26203.8730  1246    29167.0000      Cuts: 12    63262   10.16%
   7216     0    26204.9034  1285    29167.0000   MIRcuts: 13    63278   10.16%
   7216     0    26204.9034  1298    29167.0000    MIRcuts: 4    63281   10.16%
   7216     0    26204.9034  1293    29167.0000       Cuts: 3    63288   10.16%
   7216     0    26204.9034  1332    29167.0000    MIRcuts: 3    63291   10.16%
   7216     2    26204.9034  1332    29167.0000    26204.9034    63291   10.16%
Elapsed time = 6.83 sec. (9852.51 ticks, tree = 0.02 MB, solutions = 11)
*  9137+ 1291                        29157.0000    26211.9422            10.10%
*  9386+ 1645                        29157.0000    26214.0605            10.09%
*  9413+ 1676                        29157.0000    26214.0605            10.09%
   9776  2247    28443.9118   422    29157.0000    26214.0605    75429   10.09%
  13768  5756    26817.7959   522    29157.0000    26216.9383    98742   10.08%
  18632 10675    28069.2457   331    29157.0000    26216.9383   129873   10.08%
* 21117+12560                        29127.0000    26216.9383             9.99%
* 21550+13146                        29097.0000    26216.9383             9.90%
* 21781+13363                        29039.0000    26216.9383             9.72%
* 22114+13420                        29037.0000    26216.9383             9.71%
* 22266+13553                        28959.0000    26216.9383             9.47%
  22706 13596    28479.2867   206    28959.0000    26216.9383   155515    9.47%
* 23016+13769                        28195.0000    26216.9383             7.02%
* 23016+13769                        27905.0000    26216.9383             6.05%
* 23016+13769                        27895.0000    26216.9383             6.02%
  23016 13771    27355.7698   267    27895.0000    26216.9383   156729    6.02%

Mixed integer rounding cuts applied:  287
Flow path cuts applied:  0
Zero-half cuts applied:  73
Gomory fractional cuts applied:  38
Disjunctive cuts applied:  0
Cone linearizations applied:  0

Root node processing (before b&c):
  Real time             =    1.71 sec. (2466.39 ticks)
Parallel b&c, 8 threads:
  Real time             =    8.29 sec. (12519.37 ticks)
  Sync time (average)   =    0.48 sec.
  Wait time (average)   =    0.00 sec.
                          ------------
Total (root+branch&cut) =   10.00 sec. (14985.76 ticks)
Gap: 6.02%
Upper bound: 27895
Lower bound: 26216.9
End of CPLEX run. Time: 10.0055 seconds
